<number of tasks>
50

<cycle time>
1000

<order strength>
0.199


<task times>
1 186
2 242
3 238
4 188
5 132
6 93
7 135
8 91
9 245
10 118
11 81
12 183
13 72
14 88
15 60
16 223
17 81
18 67
19 347
20 179
21 60
22 124
23 126
24 180
25 65
26 171
27 60
28 130
29 124
30 181
31 53
32 120
33 139
34 59
35 208
36 130
37 79
38 115
39 208
40 51
41 132
42 120
43 134
44 140
45 69
46 149
47 96
48 187
49 108
50 52

<precedence relations>
1,7
2,8
3,9
3,12
4,11
4,13
5,10
5,45
7,14
8,15
9,16
10,17
12,19
12,24
13,18
13,24
14,21
15,23
16,24
17,20
17,25
18,22
18,44
20,27
21,29
22,28
23,29
24,26
24,30
25,31
26,32
27,33
28,34
29,35
32,36
33,37
34,40
34,41
35,38
35,39
35,42
36,43
37,44
39,46
39,49
39,50
40,45
40,46
41,47
42,48

<end>
